74295
[718, 719, 720, 721, 717, 716, 715, 714, 713, 712, 729, 728, 732, 725, 724, 723, 722, 726, 727, 731, 730, 711, 739, 740, 741, 738, 737, 736, 733, 735, 734, 743, 758, 757, 756, 755, 754, 750, 752, 751, 762, 753, 763, 764, 765, 766, 759, 760, 761, 767, 768, 769, 783, 784, 785, 786, 787, 788, 789, 776, 777, 778, 779, 780, 781, 782, 696, 697, 694, 695, 693, 684, 683, 687, 685, 688, 686, 682, 681, 680, 679, 678, 677, 676, 675, 634, 635, 636, 633, 632, 631, 630, 637, 638, 639, 640, 641, 642, 643, 644, 645, 647, 646, 650, 649, 648, 1012, 1010, 1014, 1009, 1015, 1008, 1018, 1007, 1019, 997, 995, 992, 993, 987, 986, 1039, 1040, 1041, 1042, 1043, 1044, 971, 970, 967, 966, 968, 969, 1058, 1057, 1059, 1062, 1061, 1063, 1064, 1065, 1066, 1067, 1070, 1071, 326, 324, 325, 322, 323, 320, 317, 318, 315, 316, 313, 314, 302, 303, 300, 301, 298, 299, 296, 297, 307, 308, 309, 310, 311, 312, 306, 305, 304, 295, 294, 292, 293, 289, 288, 290, 291, 321, 319, 1076, 1077, 1078, 1079, 1080, 1086, 1085, 1087, 1104, 1103, 1102, 1101, 1100, 1099, 1117, 1116, 1115, 1114, 1113, 1112, 1111, 1110, 1109, 1108, 1107, 1106, 1105, 1088, 1321, 1322, 1323, 1324, 1325, 1326, 1327, 1320, 1319, 1318, 1317, 1310, 1309, 1308, 1307, 1306, 1305, 1304, 1303, 1127, 1128, 1134, 1135, 1136, 1141, 1142, 1143, 1157, 1159, 1160, 1161, 1163, 1162, 1167, 1164, 1166, 1165, 1650, 1648, 1651, 1649, 1647, 1652, 1653, 1645, 1644, 1678, 1677, 1676, 1680, 1679, 1675, 1681, 1682, 1683, 1684, 226, 227, 225, 224, 134, 223, 222, 221, 220, 1700, 1699, 1698, 1697, 1696, 1695, 1694, 1693, 1692, 1691, 1690, 1689, 1688, 1685, 1686, 1687, 1646, 1674, 1673, 1658, 1657, 1655, 1654, 1659, 1660, 1662, 1661, 1663, 1668, 1669, 1671, 1672, 1670, 1664, 1665, 1666, 1667, 1150, 1151, 1148, 1149, 1146, 1147, 1145, 1144, 1152, 1154, 1153, 1155, 1156, 1158, 267, 273, 274, 275, 276, 277, 278, 280, 279, 287, 286, 285, 284, 283, 282, 281, 272, 271, 266, 265, 264, 263, 255, 254, 253, 252, 251, 250, 249, 242, 243, 241, 131, 130, 129, 128, 125, 124, 123, 121, 119, 120, 122, 117, 118, 116, 115, 113, 114, 127, 126, 244, 245, 246, 247, 248, 257, 258, 259, 260, 261, 262, 268, 269, 270, 256, 239, 238, 237, 236, 235, 234, 233, 240, 232, 231, 230, 229, 228, 133, 132, 136, 137, 135, 1656, 139, 138, 142, 143, 141, 140, 213, 214, 215, 216, 219, 218, 217, 145, 144, 147, 148, 146, 150, 204, 205, 206, 207, 208, 1710, 1709, 1708, 1707, 1706, 1705, 1704, 1701, 1702, 1703, 1713, 1712, 1711, 209, 210, 211, 212, 149, 152, 154, 158, 163, 162, 161, 190, 191, 192, 195, 194, 193, 160, 159, 157, 189, 164, 167, 185, 184, 183, 182, 186, 187, 188, 165, 166, 168, 171, 170, 169, 172, 173, 174, 175, 176, 177, 178, 179, 180, 181, 1797, 1798, 1796, 1795, 1794, 1793, 1792, 1789, 1788, 1765, 1764, 1770, 1772, 1771, 1766, 1763, 1767, 1769, 1555, 1554, 1553, 1773, 1768, 1551, 1548, 1529, 1545, 1528, 1527, 1530, 1531, 1544, 1546, 1547, 1543, 1537, 1538, 1539, 1777, 1778, 1780, 1781, 1783, 1782, 1784, 1779, 1775, 1774, 1776, 1536, 1534, 1535, 1542, 1541, 1540, 1785, 1786, 1787, 1802, 1803, 1804, 1805, 1809, 1810, 1811, 1812, 1813, 1814, 1815, 1816, 0, 1790, 1791, 1801, 1800, 1799, 1806, 1807, 1808, 4, 3, 5, 2, 1, 6, 7, 8, 9, 10, 11, 12, 13, 14, 15, 16, 17, 18, 19, 20, 21, 22, 23, 24, 25, 26, 27, 28, 29, 30, 31, 32, 33, 34, 35, 36, 37, 38, 46, 47, 48, 49, 50, 45, 44, 43, 41, 42, 40, 39, 51, 60, 61, 62, 52, 53, 55, 54, 56, 57, 58, 59, 63, 64, 65, 66, 67, 69, 68, 70, 71, 72, 73, 74, 75, 76, 77, 78, 79, 85, 86, 87, 88, 89, 84, 83, 82, 80, 81, 90, 93, 94, 95, 96, 97, 98, 99, 100, 101, 102, 103, 91, 92, 104, 105, 106, 107, 108, 109, 110, 111, 112, 884, 883, 882, 881, 880, 879, 878, 877, 876, 891, 890, 889, 888, 887, 886, 885, 850, 849, 842, 846, 841, 840, 839, 808, 809, 810, 811, 812, 813, 794, 793, 792, 791, 790, 775, 774, 771, 772, 773, 770, 690, 691, 692, 700, 699, 698, 706, 705, 704, 703, 702, 701, 689, 617, 629, 628, 627, 626, 625, 624, 623, 622, 621, 620, 619, 618, 611, 612, 616, 615, 614, 613, 458, 457, 462, 461, 460, 459, 589, 590, 591, 592, 593, 594, 585, 586, 587, 588, 463, 464, 465, 466, 467, 1407, 1406, 1405, 1404, 1403, 1402, 1413, 1412, 1411, 1410, 1409, 1408, 447, 448, 446, 445, 444, 440, 452, 453, 454, 456, 455, 451, 450, 449, 1420, 1419, 1418, 1417, 1416, 1415, 1414, 1240, 1241, 1242, 1243, 1232, 1246, 1247, 1248, 1233, 1234, 1235, 1236, 1237, 1238, 1239, 1228, 1229, 1230, 1231, 1244, 1245, 1220, 1219, 1222, 1221, 1223, 1224, 1225, 1227, 1226, 1431, 1432, 1433, 1434, 1423, 1424, 1425, 468, 1421, 1422, 1426, 1427, 1428, 1429, 1430, 469, 1435, 1436, 1437, 1438, 1439, 1440, 1441, 1442, 1443, 1444, 1445, 1446, 1447, 1456, 1455, 1466, 1465, 1464, 1463, 1462, 1457, 1458, 1459, 1461, 1460, 1581, 1580, 1579, 1578, 1577, 1576, 1575, 1491, 1496, 1495, 1492, 1493, 1565, 1566, 1567, 1568, 1561, 1569, 1570, 1571, 1572, 1573, 1574, 1494, 1564, 1563, 1562, 1511, 1510, 1509, 1508, 1507, 1497, 1498, 1499, 1588, 1589, 1585, 1584, 1583, 1582, 1590, 1591, 1592, 1593, 1594, 1586, 1587, 1598, 1597, 1596, 1595, 1214, 1215, 1210, 1209, 1205, 1204, 1206, 1207, 1208, 1213, 1212, 1211, 1202, 1249, 1250, 1203, 1251, 1252, 1253, 1218, 1217, 1216, 1201, 1200, 1199, 1198, 1197, 1193, 1192, 1272, 1271, 1270, 1269, 1263, 1262, 1285, 1284, 1283, 1282, 1383, 1384, 1385, 1302, 1301, 1300, 1299, 1298, 1140, 1139, 1138, 1137, 1132, 1133, 1131, 1130, 1129, 1123, 1124, 1125, 1126, 1122, 1121, 1120, 1119, 1118, 1098, 1097, 1096, 1095, 1386, 1387, 1396, 1395, 1394, 1393, 1392, 1401, 1400, 1399, 1398, 1397, 1260, 1261, 1259, 1258, 1257, 1256, 1255, 1254, 1196, 1195, 1194, 1191, 1268, 1267, 1266, 1265, 1264, 1286, 1277, 1276, 1275, 1274, 1273, 1180, 1178, 1176, 1175, 1177, 1189, 1183, 1182, 1190, 1181, 1179, 1173, 1174, 1168, 1169, 1172, 1170, 1171, 1641, 1642, 1640, 1643, 1639, 1638, 1635, 1637, 1634, 1631, 1633, 1636, 1630, 1626, 1629, 1632, 1625, 1627, 1624, 1623, 1622, 1185, 1620, 1619, 1184, 1188, 1187, 1186, 1621, 1628, 1615, 1614, 1612, 1613, 1616, 1617, 1618, 1609, 1610, 1611, 1601, 1600, 1599, 1602, 1603, 1604, 1605, 1606, 1607, 1608, 196, 197, 198, 156, 155, 151, 153, 203, 202, 201, 200, 199, 1714, 1715, 1716, 1717, 1718, 1723, 1722, 1721, 1720, 1719, 1724, 1725, 1726, 1728, 1727, 1729, 1730, 1731, 1732, 1733, 1734, 1735, 1736, 1737, 1738, 1739, 1740, 1752, 1751, 1750, 1749, 1748, 1747, 1746, 1745, 1744, 1743, 1742, 1741, 1757, 1759, 1758, 1756, 1755, 1754, 1753, 1762, 1761, 1760, 1558, 1559, 1560, 1557, 1556, 1552, 1550, 1549, 1524, 1532, 1533, 1523, 1525, 1522, 1526, 1521, 1520, 1518, 1517, 1519, 1512, 1513, 1515, 1516, 1506, 1514, 1505, 1504, 1503, 1502, 1501, 1500, 1490, 1488, 1489, 1486, 1487, 1485, 1484, 1483, 1481, 1480, 1478, 1479, 1482, 1477, 1476, 1474, 1473, 1475, 1470, 1469, 1471, 1472, 1467, 1468, 1448, 1454, 1449, 1453, 1452, 1450, 1451, 486, 485, 489, 487, 488, 490, 493, 491, 492, 494, 497, 495, 496, 498, 473, 501, 502, 471, 472, 470, 474, 477, 475, 476, 481, 482, 483, 484, 480, 479, 478, 505, 499, 500, 503, 506, 509, 504, 507, 508, 510, 511, 512, 514, 513, 515, 516, 526, 525, 524, 522, 527, 529, 530, 531, 532, 533, 535, 541, 536, 540, 539, 538, 542, 543, 537, 544, 545, 550, 547, 546, 548, 534, 528, 523, 521, 519, 552, 551, 549, 520, 518, 517, 553, 554, 570, 573, 572, 571, 556, 557, 558, 561, 564, 566, 569, 555, 559, 568, 567, 560, 563, 562, 565, 583, 581, 580, 577, 576, 574, 575, 578, 579, 582, 584, 595, 596, 597, 598, 599, 600, 601, 602, 603, 604, 605, 610, 609, 608, 607, 606, 707, 708, 710, 709, 749, 748, 747, 746, 745, 744, 742, 1388, 1389, 1390, 1391, 1360, 1359, 1358, 1346, 1347, 1357, 1356, 1355, 1345, 1344, 1343, 1369, 1368, 1367, 1366, 1365, 1364, 1363, 1362, 1361, 1377, 1378, 1379, 1297, 1296, 1295, 1294, 1293, 1292, 1291, 1290, 1289, 1278, 1287, 1288, 1279, 1280, 1281, 1380, 1381, 1382, 1376, 1375, 1374, 1373, 1372, 1371, 1370, 1332, 1331, 1330, 1329, 1328, 1335, 1334, 1333, 1316, 1315, 1314, 1313, 1312, 1311, 1092, 1093, 1094, 1091, 1090, 1089, 439, 438, 437, 431, 423, 418, 417, 416, 415, 414, 413, 411, 410, 409, 400, 398, 397, 396, 395, 394, 399, 401, 403, 405, 406, 407, 408, 404, 402, 388, 387, 1348, 1349, 1350, 1351, 1352, 1353, 1354, 391, 392, 393, 390, 389, 386, 360, 361, 362, 363, 359, 358, 357, 356, 332, 333, 334, 331, 330, 329, 328, 1072, 327, 1068, 1069, 337, 336, 335, 339, 341, 351, 352, 355, 354, 353, 350, 342, 340, 338, 1073, 1074, 1075, 1081, 1082, 1083, 1084, 1342, 1341, 1340, 1339, 1338, 1337, 1336, 364, 369, 370, 380, 381, 384, 385, 383, 382, 379, 371, 368, 367, 366, 365, 372, 373, 374, 375, 376, 377, 378, 1028, 1029, 1030, 1031, 1032, 1033, 1034, 1035, 1020, 994, 1021, 1022, 1023, 1024, 1025, 1026, 1027, 1013, 1011, 1016, 1017, 999, 998, 1006, 996, 991, 990, 989, 988, 985, 984, 983, 982, 973, 972, 975, 974, 976, 977, 978, 981, 980, 979, 1036, 1037, 1038, 1048, 1047, 1046, 1045, 1055, 1054, 1053, 1052, 1051, 1050, 1049, 349, 348, 347, 346, 345, 344, 343, 1056, 1060, 964, 965, 962, 963, 960, 961, 958, 959, 956, 957, 954, 955, 952, 953, 950, 951, 905, 906, 907, 908, 931, 930, 929, 928, 927, 926, 921, 920, 922, 923, 924, 925, 934, 933, 932, 948, 947, 946, 945, 944, 935, 943, 942, 941, 940, 939, 938, 937, 936, 949, 903, 904, 901, 902, 900, 899, 898, 897, 896, 895, 894, 893, 892, 864, 863, 862, 861, 860, 859, 870, 869, 871, 872, 874, 875, 852, 844, 845, 851, 873, 843, 848, 853, 854, 855, 856, 857, 858, 865, 866, 867, 868, 909, 910, 911, 912, 913, 914, 915, 916, 917, 838, 847, 837, 836, 835, 834, 833, 832, 824, 823, 822, 821, 820, 819, 818, 817, 816, 815, 814, 825, 826, 827, 828, 829, 830, 831, 795, 796, 797, 798, 807, 806, 805, 919, 918, 804, 803, 802, 801, 800, 799, 669, 668, 667, 666, 665, 664, 663, 659, 657, 656, 655, 654, 653, 673, 674, 1000, 652, 651, 1001, 1002, 1003, 1004, 1005, 658, 660, 661, 662, 670, 671, 672, 430, 429, 428, 427, 426, 425, 424, 412, 419, 420, 421, 422, 432, 433, 434, 435, 436, 443, 442, 441]
